
Gurobi 7.5.2 (win64, Python) logging started 02/02/18 13:35:33

Academic license - for non-commercial use only

Gurobi 7.5.2 (win64, Python) logging started 02/20/18 15:49:44

Academic license - for non-commercial use only

Gurobi 7.5.2 (win64, Python) logging started 02/20/18 18:23:26

Academic license - for non-commercial use only

Gurobi 7.5.2 (win64, Python) logging started 02/21/18 12:13:02

Academic license - for non-commercial use only

Gurobi 7.5.2 (win64, Python) logging started 02/22/18 09:49:54

Academic license - for non-commercial use only

Gurobi 7.5.2 (win64, Python) logging started 02/26/18 10:43:12

Academic license - for non-commercial use only

Gurobi 7.5.2 (win64, Python) logging started 02/28/18 18:50:06

Academic license - for non-commercial use only

Gurobi 7.5.2 (win64, Python) logging started 03/07/18 10:52:04

Academic license - for non-commercial use only

Gurobi 7.5.2 (win64, Python) logging started 03/09/18 17:54:37


Gurobi 7.5.2 (win64, Python) logging started 03/12/18 13:15:08


Gurobi 7.5.2 (win64, Python) logging started 03/12/18 13:50:55

Academic license - for non-commercial use only

Gurobi 7.5.2 (win32, Python) logging started 03/19/18 02:26:30


Gurobi 7.5.2 (win32, Python) logging started 03/19/18 02:30:00

Academic license - for non-commercial use only

Gurobi 7.5.2 (win32, Python) logging started 03/19/18 02:31:43

Academic license - for non-commercial use only

Gurobi 7.5.2 (win32, Python) logging started 03/19/18 02:31:51

Academic license - for non-commercial use only

Gurobi 7.5.2 (win32, Python) logging started 03/19/18 02:36:04

Academic license - for non-commercial use only

Gurobi 7.5.2 (win32, Python) logging started 03/19/18 02:36:31

Academic license - for non-commercial use only

Gurobi 7.5.2 (win32, Python) logging started 03/19/18 02:36:53

Academic license - for non-commercial use only

Gurobi 7.5.2 (win32, Python) logging started 03/21/18 01:09:26

Academic license - for non-commercial use only

Gurobi 7.5.2 (win32, Python) logging started 03/21/18 01:28:17

Academic license - for non-commercial use only

Gurobi 7.5.2 (win32, Python) logging started 03/21/18 01:28:57

Academic license - for non-commercial use only

Gurobi 7.5.2 (win32, Python) logging started 03/21/18 01:30:30

Academic license - for non-commercial use only

Gurobi 7.5.2 (win32, Python) logging started 03/21/18 01:31:08

Academic license - for non-commercial use only

Gurobi 7.5.2 (win32, Python) logging started 03/21/18 01:37:19

Academic license - for non-commercial use only

Gurobi 7.5.2 (win32, Python) logging started 03/21/18 01:37:30

Academic license - for non-commercial use only

Gurobi 7.5.2 (win32, Python) logging started 03/21/18 01:38:40

Academic license - for non-commercial use only

Gurobi 7.5.2 (win32, Python) logging started 03/21/18 01:38:51

Academic license - for non-commercial use only

Gurobi 7.5.2 (win32, Python) logging started 03/21/18 01:38:59

Academic license - for non-commercial use only

Gurobi 7.5.2 (win32, Python) logging started 03/21/18 01:39:12

Academic license - for non-commercial use only

Gurobi 7.5.2 (win32, Python) logging started 03/21/18 01:40:51

Academic license - for non-commercial use only

Gurobi 7.5.2 (win32, Python) logging started 03/21/18 01:41:14

Academic license - for non-commercial use only

Gurobi 7.5.2 (win32, Python) logging started 03/21/18 01:41:42

Academic license - for non-commercial use only

Gurobi 7.5.2 (win32, Python) logging started 03/21/18 01:42:06

Academic license - for non-commercial use only

Gurobi 7.5.2 (win32, Python) logging started 03/21/18 01:42:09

Academic license - for non-commercial use only

Gurobi 7.5.2 (win32, Python) logging started 03/21/18 01:42:31

Academic license - for non-commercial use only

Gurobi 7.5.2 (win32, Python) logging started 03/21/18 01:42:35

Academic license - for non-commercial use only

Gurobi 7.5.2 (win32, Python) logging started 03/21/18 01:42:37

Academic license - for non-commercial use only

Gurobi 7.5.2 (win32, Python) logging started 03/21/18 01:42:37

Academic license - for non-commercial use only

Gurobi 7.5.2 (win32, Python) logging started 03/21/18 01:43:17

Academic license - for non-commercial use only

Gurobi 7.5.2 (win32, Python) logging started 03/21/18 01:43:39

Academic license - for non-commercial use only

Gurobi 7.5.2 (win32, Python) logging started 03/21/18 01:43:46

Academic license - for non-commercial use only

Gurobi 7.5.2 (win32, Python) logging started 03/21/18 01:47:36

Academic license - for non-commercial use only

Gurobi 7.5.2 (win32, Python) logging started 03/21/18 01:47:49

Academic license - for non-commercial use only

Gurobi 7.5.2 (win32, Python) logging started 03/21/18 01:48:50

Academic license - for non-commercial use only

Gurobi 7.5.2 (win32, Python) logging started 03/21/18 01:51:39

Academic license - for non-commercial use only

Gurobi 7.5.2 (win32, Python) logging started 03/21/18 01:51:56

Academic license - for non-commercial use only

Gurobi 7.5.2 (win32, Python) logging started 03/21/18 01:57:34

Academic license - for non-commercial use only

Gurobi 7.5.2 (win32, Python) logging started 03/21/18 01:57:46

Academic license - for non-commercial use only

Gurobi 7.5.2 (win32, Python) logging started 03/21/18 01:58:04

Academic license - for non-commercial use only

Gurobi 7.5.2 (win32, Python) logging started 03/21/18 01:58:18

Academic license - for non-commercial use only

Gurobi 7.5.2 (win32, Python) logging started 03/21/18 01:58:29

Academic license - for non-commercial use only

Gurobi 7.5.2 (win32, Python) logging started 03/21/18 01:58:48

Academic license - for non-commercial use only

Gurobi 7.5.2 (win32, Python) logging started 03/21/18 01:59:01

Academic license - for non-commercial use only

Gurobi 7.5.2 (win32, Python) logging started 03/21/18 01:59:12

Academic license - for non-commercial use only

Gurobi 7.5.2 (win32, Python) logging started 03/21/18 02:00:19

Academic license - for non-commercial use only

Gurobi 7.5.2 (win32, Python) logging started 03/21/18 02:01:43

Academic license - for non-commercial use only

Gurobi 7.5.2 (win32, Python) logging started 03/21/18 02:01:50

Academic license - for non-commercial use only

Gurobi 7.5.2 (win32, Python) logging started 03/21/18 02:20:06

Academic license - for non-commercial use only

Gurobi 7.5.2 (win32, Python) logging started 03/21/18 02:21:08

Academic license - for non-commercial use only

Gurobi 7.5.2 (win32, Python) logging started 03/21/18 02:26:00

Academic license - for non-commercial use only

Gurobi 7.5.2 (win32, Python) logging started 03/21/18 02:44:41

Academic license - for non-commercial use only

Gurobi 7.5.2 (win32, Python) logging started 03/21/18 02:44:52

Academic license - for non-commercial use only

Gurobi 7.5.2 (win32, Python) logging started 03/21/18 02:45:14

Academic license - for non-commercial use only

Gurobi 7.5.2 (win32, Python) logging started 03/21/18 02:45:38

Academic license - for non-commercial use only

Gurobi 7.5.2 (win32, Python) logging started 03/21/18 02:48:08

Academic license - for non-commercial use only

Gurobi 7.5.2 (win32, Python) logging started 03/21/18 02:48:13

Academic license - for non-commercial use only

Gurobi 7.5.2 (win32, Python) logging started 03/21/18 02:48:19

Academic license - for non-commercial use only

Gurobi 7.5.2 (win32, Python) logging started 03/21/18 02:49:30

Academic license - for non-commercial use only

Gurobi 7.5.2 (win32, Python) logging started 03/21/18 02:50:20

Academic license - for non-commercial use only

Gurobi 7.5.2 (win32, Python) logging started 03/21/18 02:51:11

Academic license - for non-commercial use only

Gurobi 7.5.2 (win32, Python) logging started 03/21/18 02:51:32

Academic license - for non-commercial use only

Gurobi 7.5.2 (win32, Python) logging started 03/21/18 02:52:40

Academic license - for non-commercial use only

Gurobi 7.5.2 (win32, Python) logging started 03/21/18 02:53:23

Academic license - for non-commercial use only

Gurobi 7.5.2 (win32, Python) logging started 03/21/18 02:53:35

Academic license - for non-commercial use only

Gurobi 7.5.2 (win32, Python) logging started 03/21/18 02:53:56

Academic license - for non-commercial use only

Gurobi 7.5.2 (win32, Python) logging started 03/21/18 02:55:18

Academic license - for non-commercial use only

Gurobi 7.5.2 (win32, Python) logging started 03/21/18 02:57:29

Academic license - for non-commercial use only

Gurobi 7.5.2 (win32, Python) logging started 03/21/18 02:58:15

Academic license - for non-commercial use only

Gurobi 7.5.2 (win32, Python) logging started 03/21/18 03:01:06

Academic license - for non-commercial use only

Gurobi 7.5.2 (win32, Python) logging started 03/21/18 03:02:32

Academic license - for non-commercial use only

Gurobi 7.5.2 (win32, Python) logging started 03/21/18 11:53:07


Gurobi 7.5.2 (win32, Python) logging started 03/21/18 11:54:36

Academic license - for non-commercial use only

Gurobi 7.5.2 (win32, Python) logging started 03/21/18 14:43:52

Academic license - for non-commercial use only

Gurobi 7.5.2 (win32, Python) logging started 03/21/18 14:44:51

Academic license - for non-commercial use only
